
Gurobi 7.0.2 (mac64, Python) logging started Sun Sep 24 19:59:33 2017

Read LP format model from file output.lp
Reading time = 0.00 seconds
: 10 rows, 21 columns, 210 nonzeros
Optimize a model with 10 rows, 21 columns and 210 nonzeros
Coefficient statistics:
  Matrix range     [6e-01, 3e+01]
  Objective range  [1e+00, 3e+01]
  Bounds range     [1e+00, 1e+00]
  RHS range        [0e+00, 0e+00]
Presolve time: 0.00s
Presolved: 10 rows, 21 columns, 210 nonzeros

Iteration    Objective       Primal Inf.    Dual Inf.      Time
       0   -2.8923700e+02   6.984303e+01   0.000000e+00      0s
      12   -1.1079147e+01   0.000000e+00   0.000000e+00      0s

Solved in 12 iterations and 0.00 seconds
Optimal objective -1.107914702e+01

Gurobi 7.0.2 (mac64, Python) logging started Sun Sep 24 19:59:40 2017

Read LP format model from file output.lp
Reading time = 0.05 seconds
: 100 rows, 1001 columns, 100100 nonzeros
Optimize a model with 100 rows, 1001 columns and 100100 nonzeros
Coefficient statistics:
  Matrix range     [6e-02, 3e+01]
  Objective range  [1e-01, 3e+01]
  Bounds range     [1e+00, 1e+00]
  RHS range        [0e+00, 0e+00]

Concurrent LP optimizer: dual simplex and barrier
Showing barrier log only...

Presolve time: 0.02s
Presolved: 100 rows, 1001 columns, 100100 nonzeros

Ordering time: 0.00s

Barrier statistics:
 AA' NZ     : 4.950e+03
 Factor NZ  : 5.050e+03
 Factor Ops : 3.384e+05 (less than 1 second per iteration)
 Threads    : 3

                  Objective                Residual
Iter       Primal          Dual         Primal    Dual     Compl     Time
   0   7.33358834e+03 -7.98433856e+03  3.20e-01 3.55e-15  5.70e+00     0s
   1  -4.41495299e+00 -1.05553962e+03  0.00e+00 3.20e-14  5.03e-01     0s
   2  -1.26622482e+02 -2.81113284e+02  0.00e+00 1.88e-02  7.36e-02     0s
   3  -1.96347469e+02 -2.18606189e+02  0.00e+00 7.07e-04  1.06e-02     0s
   4  -2.05320924e+02 -2.10779325e+02  0.00e+00 6.54e-05  2.60e-03     0s
   5  -2.07296038e+02 -2.09014856e+02  0.00e+00 3.20e-14  8.18e-04     0s
   6  -2.07893782e+02 -2.08498590e+02  0.00e+00 3.20e-14  2.88e-04     0s
   7  -2.08140665e+02 -2.08236635e+02  0.00e+00 2.84e-14  4.57e-05     0s
   8  -2.08178998e+02 -2.08196490e+02  0.00e+00 2.84e-14  8.32e-06     0s
   9  -2.08189147e+02 -2.08192536e+02  0.00e+00 2.84e-14  1.61e-06     0s
  10  -2.08190943e+02 -2.08191817e+02  0.00e+00 2.49e-14  4.16e-07     0s
  11  -2.08191021e+02 -2.08191022e+02  0.00e+00 3.55e-14  3.06e-10     0s

Barrier solved model in 11 iterations and 0.06 seconds
Optimal objective -2.08191021e+02

Crossover log...

       0 DPushes remaining with DInf 0.0000000e+00                 0s

       0 PPushes remaining with PInf 0.0000000e+00                 0s

  Push phase complete: Pinf 0.0000000e+00, Dinf 7.9507668e-13      0s

Iteration    Objective       Primal Inf.    Dual Inf.      Time
       3   -2.0819102e+02   0.000000e+00   0.000000e+00      0s
       3   -2.0819102e+02   0.000000e+00   0.000000e+00      0s

Solved with barrier
Solved in 3 iterations and 0.07 seconds
Optimal objective -2.081910212e+02

Gurobi 7.0.2 (mac64, Python) logging started Sun Sep 24 20:07:48 2017

Read LP format model from file output.lp
Reading time = 0.04 seconds
: 100 rows, 1001 columns, 100100 nonzeros
Optimize a model with 100 rows, 1001 columns and 100100 nonzeros
Coefficient statistics:
  Matrix range     [6e-02, 3e+01]
  Objective range  [1e-01, 3e+01]
  Bounds range     [1e+00, 1e+00]
  RHS range        [0e+00, 0e+00]

Concurrent LP optimizer: dual simplex and barrier
Showing barrier log only...

Presolve time: 0.02s
Presolved: 100 rows, 1001 columns, 100100 nonzeros

Ordering time: 0.00s

Barrier statistics:
 AA' NZ     : 4.950e+03
 Factor NZ  : 5.050e+03
 Factor Ops : 3.384e+05 (less than 1 second per iteration)
 Threads    : 3

                  Objective                Residual
Iter       Primal          Dual         Primal    Dual     Compl     Time
   0   7.33358834e+03 -7.98433856e+03  3.20e-01 3.55e-15  5.70e+00     0s
   1  -4.41495299e+00 -1.05553962e+03  0.00e+00 3.20e-14  5.03e-01     0s
   2  -1.26622482e+02 -2.81113284e+02  0.00e+00 1.88e-02  7.36e-02     0s
   3  -1.96347469e+02 -2.18606189e+02  0.00e+00 7.07e-04  1.06e-02     0s
   4  -2.05320924e+02 -2.10779325e+02  0.00e+00 6.54e-05  2.60e-03     0s
   5  -2.07296038e+02 -2.09014856e+02  0.00e+00 3.20e-14  8.18e-04     0s
   6  -2.07893782e+02 -2.08498590e+02  0.00e+00 3.20e-14  2.88e-04     0s
   7  -2.08140665e+02 -2.08236635e+02  0.00e+00 2.84e-14  4.57e-05     0s
   8  -2.08178998e+02 -2.08196490e+02  0.00e+00 2.84e-14  8.32e-06     0s
   9  -2.08189147e+02 -2.08192536e+02  0.00e+00 2.84e-14  1.61e-06     0s
  10  -2.08190943e+02 -2.08191817e+02  0.00e+00 2.49e-14  4.16e-07     0s
  11  -2.08191021e+02 -2.08191022e+02  0.00e+00 3.55e-14  3.06e-10     0s

Barrier solved model in 11 iterations and 0.06 seconds
Optimal objective -2.08191021e+02

Crossover log...

       0 DPushes remaining with DInf 0.0000000e+00                 0s

       0 PPushes remaining with PInf 0.0000000e+00                 0s

  Push phase complete: Pinf 0.0000000e+00, Dinf 7.9507668e-13      0s

Iteration    Objective       Primal Inf.    Dual Inf.      Time
       3   -2.0819102e+02   0.000000e+00   0.000000e+00      0s
       3   -2.0819102e+02   0.000000e+00   0.000000e+00      0s

Solved with barrier
Solved in 3 iterations and 0.08 seconds
Optimal objective -2.081910212e+02
